51	3

12	12	10	

0	0	0	0	3	2	3	6	
4	5	4	3	2	4	8	
2	3	5	2	3	4	5	8	
6	4	1	4	2	10	11	
3	2	4	4	3	7	10	11	
2	5	2	2	2	8	9	
5	4	1	4	1	12	
1	5	5	4	2	10	13	
1	3	5	2	2	10	13	
6	3	2	4	1	14	
6	3	3	2	1	15	
6	1	4	4	2	17	21	
2	3	2	2	2	15	16	
4	5	5	4	1	19	
3	2	2	2	1	18	
3	1	5	4	1	18	
2	2	4	6	3	20	22	24	
2	4	5	4	1	23	
3	3	2	3	1	24	
3	1	0	4	1	25	
1	5	3	3	1	24	
2	3	2	1	1	25	
2	2	2	1	1	25	
3	1	6	2	1	26	
5	0	1	3	1	27	
3	2	2	2	3	27	28	31	
4	5	4	3	2	29	33	
2	3	5	2	3	29	30	33	
6	4	1	4	2	35	36	
3	2	4	4	3	32	35	36	
2	5	2	2	2	33	34	
5	4	1	4	1	37	
1	5	5	4	2	35	38	
1	3	5	2	2	35	38	
6	3	2	4	1	39	
6	3	3	2	1	40	
6	1	4	4	2	42	46	
2	3	2	2	2	40	41	
4	5	5	4	1	44	
3	2	2	2	1	43	
3	1	5	4	1	43	
2	2	4	6	3	45	47	49	
2	4	5	4	1	48	
3	3	2	3	1	49	
3	1	0	4	1	50	
1	5	3	3	1	49	
2	3	2	1	1	50	
2	2	2	1	1	50	
3	1	6	2	1	51	
5	0	1	3	1	51	
0	0	0	0	0	
